3 15
380 398 418 
0 28 70 5 88 81 7 37 24 13 50 36 95 3
1 29 2 37 45 54 79 41 9 6 6 29 41 2
2 26 52 27 23 35 93 19 42 58 24 52 38 2
3 34 97 11 52 87 98 32 83 99 89 65 50 2
4 44 38 12 89 89 31 48 45 7 98 78 71 3
5 51 96 60 42 68 97 72 62 85 78 47 63 1
6 12 99 60 26 9 52 7 69 59 92 100 57 2
7 26 90 66 28 7 75 61 63 99 71 6 50 1
8 69 3 21 70 82 44 11 89 6 9 28 63 3
9 57 60 17 7 86 61 41 19 59 99 11 38 2
10 61 38 54 84 38 23 92 4 27 3 61 37 3
11 77 17 50 28 14 38 77 54 2 55 40 15 3
12 1 42 62 85 22 35 21 65 56 75 44 48 2
13 52 54 93 93 41 39 98 56 19 53 89 62 2
14 1 3 74 37 38 64 62 31 82 80 100 70 2
